# 20285
param k := 6;
param n := 60;
param s := 1;
set E :=  (0,2) (0,14) (1,32) (2,56) (3,52) (4,19) (4,22) (5,11) (5,12) (5,39) (6,13) (7,15) (8,13) (9,32) (9,37) (10,23) (10,30) (10,59) (11,48) (12,27) (13,50) (13,54) (14,49) (15,44) (16,41) (17,59) (18,29) (20,54) (21,25) (21,44) (22,23) (22,39) (23,45) (23,55) (24,41) (25,45) (26,30) (27,37) (27,50) (28,36) (28,47) (29,47) (30,40) (30,46) (31,39) (33,39) (34,36) (35,53) (36,38) (37,49) (38,44) (41,50) (42,44) (43,52) (44,53) (46,51) (48,57) (52,59) (56,58);